c A SAT instance generated from a 3-CNF formula that had 25 clauses and 25 variables
p cnf 25 25
4 -2 -13 0
9 -3 24 0
-17 21 3 0
-1 -16 17 0
-24 -9 11 0
1 -10 -22 0
-14 -1 -15 0
23 -15 -8 0
-5 23 -13 0
-6 7 21 0
7 5 -10 0
-15 -13 12 0
4 -13 -14 0
3 20 15 0
-22 -23 5 0
-22 12 -21 0
5 22 -16 0
17 20 -8 0
15 -9 -23 0
-19 17 -14 0
1 -23 10 0
16 4 -9 0
21 20 -2 0
7 -10 17 0
-22 -11 4 0
